certificates/rado_a9_c236_N27.cnf
c Rad2 upper bound instance: x1 + 9*x2 - x3 = 236, interval [1,27]
p cnf 27 136
1 8 27 0
-1 -8 -27 0
2 9 27 0
-2 -9 -27 0
1 3 26 0
-1 -3 -26 0
3 10 27 0
-3 -10 -27 0
2 4 26 0
-2 -4 -26 0
4 11 27 0
-4 -11 -27 0
3 5 26 0
-3 -5 -26 0
5 12 27 0
-5 -12 -27 0
4 6 26 0
-4 -6 -26 0
6 13 27 0
-6 -13 -27 0
5 7 26 0
-5 -7 -26 0
7 14 27 0
-7 -14 -27 0
6 8 26 0
-6 -8 -26 0
8 15 27 0
-8 -15 -27 0
7 9 26 0
-7 -9 -26 0
9 16 27 0
-9 -16 -27 0
8 10 26 0
-8 -10 -26 0
10 17 27 0
-10 -17 -27 0
9 11 26 0
-9 -11 -26 0
11 18 27 0
-11 -18 -27 0
1 12 25 0
-1 -12 -25 0
10 12 26 0
-10 -12 -26 0
12 19 27 0
-12 -19 -27 0
2 13 25 0
-2 -13 -25 0
11 13 26 0
-11 -13 -26 0
13 20 27 0
-13 -20 -27 0
3 14 25 0
-3 -14 -25 0
12 14 26 0
-12 -14 -26 0
14 21 27 0
-14 -21 -27 0
4 15 25 0
-4 -15 -25 0
13 15 26 0
-13 -15 -26 0
15 22 27 0
-15 -22 -27 0
5 16 25 0
-5 -16 -25 0
14 16 26 0
-14 -16 -26 0
16 23 27 0
-16 -23 -27 0
6 17 25 0
-6 -17 -25 0
15 17 26 0
-15 -17 -26 0
17 24 27 0
-17 -24 -27 0
7 18 25 0
-7 -18 -25 0
16 18 26 0
-16 -18 -26 0
18 25 27 0
-18 -25 -27 0
8 19 25 0
-8 -19 -25 0
17 19 26 0
-17 -19 -26 0
19 26 27 0
-19 -26 -27 0
9 20 25 0
-9 -20 -25 0
18 20 26 0
-18 -20 -26 0
20 27 0
-20 -27 0
1 21 24 0
-1 -21 -24 0
10 21 25 0
-10 -21 -25 0
19 21 26 0
-19 -21 -26 0
2 22 24 0
-2 -22 -24 0
11 22 25 0
-11 -22 -25 0
20 22 26 0
-20 -22 -26 0
3 23 24 0
-3 -23 -24 0
12 23 25 0
-12 -23 -25 0
21 23 26 0
-21 -23 -26 0
4 24 0
-4 -24 0
13 24 25 0
-13 -24 -25 0
22 24 26 0
-22 -24 -26 0
5 24 25 0
-5 -24 -25 0
14 25 0
-14 -25 0
23 25 26 0
-23 -25 -26 0
6 24 26 0
-6 -24 -26 0
15 25 26 0
-15 -25 -26 0
24 26 0
-24 -26 0
7 24 27 0
-7 -24 -27 0
16 25 27 0
-16 -25 -27 0
25 26 27 0
-25 -26 -27 0
