certificates/rado_a9_c236_N27.drat
-26 -27 0
-27 0
20 0
26 0
-24 0
-18 0
-22 0
4 0
17 0
7 0
11 0
25 0
15 0
2 0
0
